language ESSENCE' 1.0

letting demand_Function1D be
        [280, 280, 230, 230, 230, 230, 150, 100, 100, 100, 100, 90, 90, 90, 90, 90, 90, 80, 80, 80, 80, 70, 70, 70, 70,
         70, 70, 70, 60, 60;
             int(1..30)]
letting n_variations be 30
letting n_templates be 3
letting n_slots be 42
letting fin1 be 30
letting fin2 be 60
letting fin3 be 280
